Optimal - objective value -111.00000000
      0 x_0                    1                     -50
      1 x_1                    0                      17
      2 x_2                    0                      -4
      3 x_3                    0                     -63
      4 x_4                    0                      -4
      5 x_5                    0                       0
      6 x_6                    1                     -29
      7 x_7                    0                      14
      8 x_8                    0                     -63
      9 x_9                    0                     -14
     10 x_10                   0                     -55
     11 x_11                   0                     -63
     12 x_12                   0                     -38
     13 x_13                   0                      20
     14 x_14                   0                     -44
     15 x_15                   0                     -23
     16 x_16                   0                      27
     17 x_17                   0                      28
